(set-info :smt-lib-version 2.6)
(set-logic QF_S)
(set-info :source |
Generated by: Murphy Berzish, Mitja Kulczynski, Federico Mora, Florin Manea, Joel Day, Dirk Nowotka, Vijay Ganesh, Zhengyang Lu
Generated on: 2020-10-01
Description: Translated from a collection of real-world regex queries, AutomataArk, collected by Loris D’Antoni and Fang Wang: https://github.com/lorisdanto/automatark
Application: Evaluate solvers on real-world regex queries
Target solver: Z3str3RE, CVC4, OSTRICH, Z3seq, Z3str3, Z3-Trau
Publications: Berzish, M., Kulczynski, M., Mora, F., Manea, F., Day, J. D., Nowotka, D., & Ganesh, V. (2021, July). An SMT solver for regular expressions and linear arithmetic over string length. In CAV 2021.
|)
(set-info :license "https://creativecommons.org/licenses/by/4.0/")
(set-info :category "industrial")
(set-info :status sat)

(declare-const X String)
(assert (not (str.in_re X (re.++ (re.opt (re.union (str.to_re "(") (str.to_re "{"))) (re.opt (str.to_re "0x")) ((_ re.loop 8 8) (re.union (re.range "0" "9") (re.range "a" "f") (re.range "A" "F"))) ((_ re.loop 2 2) (re.++ (re.opt (re.union (str.to_re "-") (str.to_re ","))) (re.opt (str.to_re "0x")) ((_ re.loop 4 4) (re.union (re.range "0" "9") (re.range "a" "f") (re.range "A" "F"))))) (re.union (re.++ (re.opt (str.to_re "-")) ((_ re.loop 4 4) (re.union (re.range "0" "9") (re.range "a" "f") (re.range "A" "F"))) (re.opt (str.to_re "-")) ((_ re.loop 12 12) (re.union (re.range "0" "9") (re.range "a" "f") (re.range "A" "F")))) (re.++ (str.to_re ",{0x") ((_ re.loop 2 2) (re.union (re.range "0" "9") (re.range "a" "f") (re.range "A" "F"))) ((_ re.loop 7 7) (re.++ (str.to_re ",0x") ((_ re.loop 2 2) (re.union (re.range "0" "9") (re.range "a" "f") (re.range "A" "F"))))) (str.to_re "}"))) (re.opt (re.union (str.to_re ")") (str.to_re "}"))) (str.to_re "\u{a}")))))
(assert (not (str.in_re X (re.++ (str.to_re "FTP") (re.* re.allchar) (str.to_re "www.wordiq.com\u{1b}\u{a}")))))
(assert (not (str.in_re X (re.++ (str.to_re "http://www") re.allchar (str.to_re "scribd") re.allchar (str.to_re "com/doc/2569355/Geo-Distance-Search-with-MySQL\u{a}")))))
(check-sat)

(exit)
